NAME: random_points
TYPE: TSP
DIMENSION: 17
EDGE_WEIGHT_TYPE: EUC_2D
NODE_COORD_SECTION
1 634 943
2 4 754
3 520 308
4 861 778
5 946 409
6 893 513
7 777 897
8 479 261
9 838 64
10 338 922
11 853 320
12 119 657
13 353 83
14 159 36
15 763 821
16 977 830
17 852 977
EOF
